(set-info :source |printed by MathSAT|)
(declare-fun call_int6I.flby () Int)
(declare-fun call_bool6.b () Bool)
(declare-fun call_bool6.flby () Bool)
(declare-fun call_int6I.time () Int)
(declare-fun call_bool6.out () Bool)
(declare-fun call_bool6.flby3 () Bool)
(declare-fun call_bool6.c () Bool)
(declare-fun a () Bool)
(declare-fun call_int6I.out () Bool)
(declare-fun _OK_ () Bool)
(declare-fun b () Bool)
(declare-fun call_bool6.a () Bool)
(declare-fun call_bool6.flby2 () Bool)
(define-fun .def_151 () Bool (not call_bool6.flby3))
(define-fun .def_149 () Bool (not call_bool6.flby2))
(define-fun .def_147 () Bool (not call_bool6.flby))
(define-fun .def_146 () Bool (= call_int6I.flby 0))
(define-fun .def_148 () Bool (and .def_146 .def_147))
(define-fun .def_150 () Bool (and .def_148 .def_149))
(define-fun .def_152 () Bool (and .def_150 .def_151))
(define-fun .def_144 () Bool (= call_bool6.c call_bool6.flby3))
(define-fun .def_141 () Bool (= call_bool6.b call_bool6.flby2))
(define-fun .def_137 () Bool (= call_bool6.a call_bool6.flby))
(define-fun .def_133 () Bool (and call_bool6.a call_bool6.c))
(define-fun .def_134 () Bool (= call_bool6.out .def_133))
(define-fun .def_129 () Bool (= call_int6I.time call_int6I.flby))
(define-fun .def_125 () Bool (= call_int6I.time 5))
(define-fun .def_126 () Bool (= call_int6I.out .def_125))
(define-fun .def_122 () Bool (= b call_bool6.out))
(define-fun .def_119 () Bool (= a call_int6I.out))
(define-fun .def_116 () Bool (= a b))
(define-fun .def_117 () Bool (= _OK_ .def_116))
(define-fun .def_120 () Bool (and .def_117 .def_119))
(define-fun .def_123 () Bool (and .def_120 .def_122))
(define-fun .def_127 () Bool (and .def_123 .def_126))
(define-fun .def_130 () Bool (and .def_127 .def_129))
(define-fun .def_135 () Bool (and .def_130 .def_134))
(define-fun .def_138 () Bool (and .def_135 .def_137))
(define-fun .def_142 () Bool (and .def_138 .def_141))
(define-fun .def_145 () Bool (and .def_142 .def_144))
(define-fun .def_153 () Bool (and .def_145 .def_152))
(assert .def_153)
